p cnf 19 11
a 1 2 0
e 3 4 0
a 5 6 7 8 0
e 9 0
a 10 11 0
e 12 13 14 15 0
a 16 0
e 17 18 0
a 19 0
-10 12 9 0
11 -16 -1 0
7 6 -9 -12 0
7 8 -4 2 0
15 -8 9 1 -4 0
2 -1 -6 17 14 0
8 -11 4 19 5 0
10 -12 18 -13 0
-11 1 9 17 0
-14 8 12 -11 -3 0
-7 -12 -16 -10 0
